# 62831
param k := 6;
param n := 60;
param s := 1;
set E :=  (0,18) (1,26) (1,36) (2,46) (3,24) (3,29) (4,33) (4,56) (5,10) (6,7) (6,10) (8,10) (8,18) (9,23) (9,30) (9,49) (10,54) (11,27) (11,37) (11,49) (12,53) (13,30) (14,22) (14,27) (15,31) (15,41) (15,42) (16,44) (17,18) (17,27) (17,34) (17,59) (19,39) (19,54) (19,56) (20,25) (20,32) (20,40) (20,44) (20,57) (21,22) (21,48) (22,31) (22,33) (23,43) (26,31) (27,45) (27,47) (28,29) (29,43) (33,55) (35,57) (36,46) (38,53) (38,59) (42,58) (43,44) (45,56) (46,50) (47,52) (49,51);